language ESSENCE' 1.0
letting initGrid be [
    [1, 2, 2, 3, 2],
[1, 3, 2, 2, 2],
[1, 1, 2, 2, 3],
[4, 4, 1, 1, 5],
[4, 4, 1, 3, 1],
[4, 3, 2, 5, 3]
    ]
letting goalBlocksRemaining be 5
letting noSteps be 17
